c FILE: 4-Insertions_4.col
c SOURCE: M. Caramia (caramia@iac.rm.cnr.it) and P. Dell'Olmo (paolo.dellolmo@uniroma1.it)
c DESCRIPTION: 4-Insertions graph of order 4%
p edge 475 1795
e 1 2
e 1 4
e 1 15
e 1 17
e 1 81
e 1 83
e 1 94
e 1 96
e 2 3
e 2 14
e 2 16
e 2 80
e 2 82
e 2 93
e 2 95
e 3 6
e 3 15
e 3 19
e 3 81
e 3 85
e 3 94
e 3 98
e 4 5
e 4 14
e 4 18
e 4 80
e 4 84
e 4 93
e 4 97
e 5 8
e 5 17
e 5 21
e 5 83
e 5 87
e 5 96
e 5 100
e 6 7
e 6 16
e 6 20
e 6 82
e 6 86
e 6 95
e 6 99
e 7 10
e 7 19
e 7 23
e 7 85
e 7 89
e 7 98
e 7 102
e 8 9
e 8 18
e 8 22
e 8 84
e 8 88
e 8 97
e 8 101
e 9 12
e 9 21
e 9 25
e 9 87
e 9 91
e 9 100
e 9 104
e 10 11
e 10 20
e 10 24
e 10 86
e 10 90
e 10 99
e 10 103
e 11 13
e 11 23
e 11 26
e 11 89
e 11 92
e 11 102
e 11 105
e 12 13
e 12 22
e 12 26
e 12 88
e 12 92
e 12 101
e 12 105
e 13 24
e 13 25
e 13 90
e 13 91
e 13 103
e 13 104
e 14 28
e 14 30
e 14 81
e 14 83
e 14 107
e 14 109
e 15 27
e 15 29
e 15 80
e 15 82
e 15 106
e 15 108
e 16 28
e 16 32
e 16 81
e 16 85
e 16 107
e 16 111
e 17 27
e 17 31
e 17 80
e 17 84
e 17 106
e 17 110
e 18 30
e 18 34
e 18 83
e 18 87
e 18 109
e 18 113
e 19 29
e 19 33
e 19 82
e 19 86
e 19 108
e 19 112
e 20 32
e 20 36
e 20 85
e 20 89
e 20 111
e 20 115
e 21 31
e 21 35
e 21 84
e 21 88
e 21 110
e 21 114
e 22 34
e 22 38
e 22 87
e 22 91
e 22 113
e 22 117
e 23 33
e 23 37
e 23 86
e 23 90
e 23 112
e 23 116
e 24 36
e 24 39
e 24 89
e 24 92
e 24 115
e 24 118
e 25 35
e 25 39
e 25 88
e 25 92
e 25 114
e 25 118
e 26 37
e 26 38
e 26 90
e 26 91
e 26 116
e 26 117
e 27 41
e 27 43
e 27 94
e 27 96
e 27 120
e 27 122
e 28 40
e 28 42
e 28 93
e 28 95
e 28 119
e 28 121
e 29 41
e 29 45
e 29 94
e 29 98
e 29 120
e 29 124
e 30 40
e 30 44
e 30 93
e 30 97
e 30 119
e 30 123
e 31 43
e 31 47
e 31 96
e 31 100
e 31 122
e 31 126
e 32 42
e 32 46
e 32 95
e 32 99
e 32 121
e 32 125
e 33 45
e 33 49
e 33 98
e 33 102
e 33 124
e 33 128
e 34 44
e 34 48
e 34 97
e 34 101
e 34 123
e 34 127
e 35 47
e 35 51
e 35 100
e 35 104
e 35 126
e 35 130
e 36 46
e 36 50
e 36 99
e 36 103
e 36 125
e 36 129
e 37 49
e 37 52
e 37 102
e 37 105
e 37 128
e 37 131
e 38 48
e 38 52
e 38 101
e 38 105
e 38 127
e 38 131
e 39 50
e 39 51
e 39 103
e 39 104
e 39 129
e 39 130
e 40 54
e 40 56
e 40 107
e 40 109
e 40 133
e 40 135
e 41 53
e 41 55
e 41 106
e 41 108
e 41 132
e 41 134
e 42 54
e 42 58
e 42 107
e 42 111
e 42 133
e 42 137
e 43 53
e 43 57
e 43 106
e 43 110
e 43 132
e 43 136
e 44 56
e 44 60
e 44 109
e 44 113
e 44 135
e 44 139
e 45 55
e 45 59
e 45 108
e 45 112
e 45 134
e 45 138
e 46 58
e 46 62
e 46 111
e 46 115
e 46 137
e 46 141
e 47 57
e 47 61
e 47 110
e 47 114
e 47 136
e 47 140
e 48 60
e 48 64
e 48 113
e 48 117
e 48 139
e 48 143
e 49 59
e 49 63
e 49 112
e 49 116
e 49 138
e 49 142
e 50 62
e 50 65
e 50 115
e 50 118
e 50 141
e 50 144
e 51 61
e 51 65
e 51 114
e 51 118
e 51 140
e 51 144
e 52 63
e 52 64
e 52 116
e 52 117
e 52 142
e 52 143
e 53 67
e 53 69
e 53 120
e 53 122
e 53 146
e 53 148
e 54 66
e 54 68
e 54 119
e 54 121
e 54 145
e 54 147
e 55 67
e 55 71
e 55 120
e 55 124
e 55 146
e 55 150
e 56 66
e 56 70
e 56 119
e 56 123
e 56 145
e 56 149
e 57 69
e 57 73
e 57 122
e 57 126
e 57 148
e 57 152
e 58 68
e 58 72
e 58 121
e 58 125
e 58 147
e 58 151
e 59 71
e 59 75
e 59 124
e 59 128
e 59 150
e 59 154
e 60 70
e 60 74
e 60 123
e 60 127
e 60 149
e 60 153
e 61 73
e 61 77
e 61 126
e 61 130
e 61 152
e 61 156
e 62 72
e 62 76
e 62 125
e 62 129
e 62 151
e 62 155
e 63 75
e 63 78
e 63 128
e 63 131
e 63 154
e 63 157
e 64 74
e 64 78
e 64 127
e 64 131
e 64 153
e 64 157
e 65 76
e 65 77
e 65 129
e 65 130
e 65 155
e 65 156
e 66 79
e 66 133
e 66 135
e 66 158
e 67 79
e 67 132
e 67 134
e 67 158
e 68 79
e 68 133
e 68 137
e 68 158
e 69 79
e 69 132
e 69 136
e 69 158
e 70 79
e 70 135
e 70 139
e 70 158
e 71 79
e 71 134
e 71 138
e 71 158
e 72 79
e 72 137
e 72 141
e 72 158
e 73 79
e 73 136
e 73 140
e 73 158
e 74 79
e 74 139
e 74 143
e 74 158
e 75 79
e 75 138
e 75 142
e 75 158
e 76 79
e 76 141
e 76 144
e 76 158
e 77 79
e 77 140
e 77 144
e 77 158
e 78 79
e 78 142
e 78 143
e 78 158
e 79 145
e 79 146
e 79 147
e 79 148
e 79 149
e 79 150
e 79 151
e 79 152
e 79 153
e 79 154
e 79 155
e 79 156
e 79 157
e 80 160
e 80 162
e 80 173
e 80 175
e 81 159
e 81 161
e 81 172
e 81 174
e 82 160
e 82 164
e 82 173
e 82 177
e 83 159
e 83 163
e 83 172
e 83 176
e 84 162
e 84 166
e 84 175
e 84 179
e 85 161
e 85 165
e 85 174
e 85 178
e 86 164
e 86 168
e 86 177
e 86 181
e 87 163
e 87 167
e 87 176
e 87 180
e 88 166
e 88 170
e 88 179
e 88 183
e 89 165
e 89 169
e 89 178
e 89 182
e 90 168
e 90 171
e 90 181
e 90 184
e 91 167
e 91 171
e 91 180
e 91 184
e 92 169
e 92 170
e 92 182
e 92 183
e 93 160
e 93 162
e 93 186
e 93 188
e 94 159
e 94 161
e 94 185
e 94 187
e 95 160
e 95 164
e 95 186
e 95 190
e 96 159
e 96 163
e 96 185
e 96 189
e 97 162
e 97 166
e 97 188
e 97 192
e 98 161
e 98 165
e 98 187
e 98 191
e 99 164
e 99 168
e 99 190
e 99 194
e 100 163
e 100 167
e 100 189
e 100 193
e 101 166
e 101 170
e 101 192
e 101 196
e 102 165
e 102 169
e 102 191
e 102 195
e 103 168
e 103 171
e 103 194
e 103 197
e 104 167
e 104 171
e 104 193
e 104 197
e 105 169
e 105 170
e 105 195
e 105 196
e 106 173
e 106 175
e 106 199
e 106 201
e 107 172
e 107 174
e 107 198
e 107 200
e 108 173
e 108 177
e 108 199
e 108 203
e 109 172
e 109 176
e 109 198
e 109 202
e 110 175
e 110 179
e 110 201
e 110 205
e 111 174
e 111 178
e 111 200
e 111 204
e 112 177
e 112 181
e 112 203
e 112 207
e 113 176
e 113 180
e 113 202
e 113 206
e 114 179
e 114 183
e 114 205
e 114 209
e 115 178
e 115 182
e 115 204
e 115 208
e 116 181
e 116 184
e 116 207
e 116 210
e 117 180
e 117 184
e 117 206
e 117 210
e 118 182
e 118 183
e 118 208
e 118 209
e 119 186
e 119 188
e 119 212
e 119 214
e 120 185
e 120 187
e 120 211
e 120 213
e 121 186
e 121 190
e 121 212
e 121 216
e 122 185
e 122 189
e 122 211
e 122 215
e 123 188
e 123 192
e 123 214
e 123 218
e 124 187
e 124 191
e 124 213
e 124 217
e 125 190
e 125 194
e 125 216
e 125 220
e 126 189
e 126 193
e 126 215
e 126 219
e 127 192
e 127 196
e 127 218
e 127 222
e 128 191
e 128 195
e 128 217
e 128 221
e 129 194
e 129 197
e 129 220
e 129 223
e 130 193
e 130 197
e 130 219
e 130 223
e 131 195
e 131 196
e 131 221
e 131 222
e 132 199
e 132 201
e 132 225
e 132 227
e 133 198
e 133 200
e 133 224
e 133 226
e 134 199
e 134 203
e 134 225
e 134 229
e 135 198
e 135 202
e 135 224
e 135 228
e 136 201
e 136 205
e 136 227
e 136 231
e 137 200
e 137 204
e 137 226
e 137 230
e 138 203
e 138 207
e 138 229
e 138 233
e 139 202
e 139 206
e 139 228
e 139 232
e 140 205
e 140 209
e 140 231
e 140 235
e 141 204
e 141 208
e 141 230
e 141 234
e 142 207
e 142 210
e 142 233
e 142 236
e 143 206
e 143 210
e 143 232
e 143 236
e 144 208
e 144 209
e 144 234
e 144 235
e 145 212
e 145 214
e 145 237
e 146 211
e 146 213
e 146 237
e 147 212
e 147 216
e 147 237
e 148 211
e 148 215
e 148 237
e 149 214
e 149 218
e 149 237
e 150 213
e 150 217
e 150 237
e 151 216
e 151 220
e 151 237
e 152 215
e 152 219
e 152 237
e 153 218
e 153 222
e 153 237
e 154 217
e 154 221
e 154 237
e 155 220
e 155 223
e 155 237
e 156 219
e 156 223
e 156 237
e 157 221
e 157 222
e 157 237
e 158 224
e 158 225
e 158 226
e 158 227
e 158 228
e 158 229
e 158 230
e 158 231
e 158 232
e 158 233
e 158 234
e 158 235
e 158 236
e 159 239
e 159 241
e 159 252
e 159 254
e 160 238
e 160 240
e 160 251
e 160 253
e 161 239
e 161 243
e 161 252
e 161 256
e 162 238
e 162 242
e 162 251
e 162 255
e 163 241
e 163 245
e 163 254
e 163 258
e 164 240
e 164 244
e 164 253
e 164 257
e 165 243
e 165 247
e 165 256
e 165 260
e 166 242
e 166 246
e 166 255
e 166 259
e 167 245
e 167 249
e 167 258
e 167 262
e 168 244
e 168 248
e 168 257
e 168 261
e 169 247
e 169 250
e 169 260
e 169 263
e 170 246
e 170 250
e 170 259
e 170 263
e 171 248
e 171 249
e 171 261
e 171 262
e 172 239
e 172 241
e 172 265
e 172 267
e 173 238
e 173 240
e 173 264
e 173 266
e 174 239
e 174 243
e 174 265
e 174 269
e 175 238
e 175 242
e 175 264
e 175 268
e 176 241
e 176 245
e 176 267
e 176 271
e 177 240
e 177 244
e 177 266
e 177 270
e 178 243
e 178 247
e 178 269
e 178 273
e 179 242
e 179 246
e 179 268
e 179 272
e 180 245
e 180 249
e 180 271
e 180 275
e 181 244
e 181 248
e 181 270
e 181 274
e 182 247
e 182 250
e 182 273
e 182 276
e 183 246
e 183 250
e 183 272
e 183 276
e 184 248
e 184 249
e 184 274
e 184 275
e 185 252
e 185 254
e 185 278
e 185 280
e 186 251
e 186 253
e 186 277
e 186 279
e 187 252
e 187 256
e 187 278
e 187 282
e 188 251
e 188 255
e 188 277
e 188 281
e 189 254
e 189 258
e 189 280
e 189 284
e 190 253
e 190 257
e 190 279
e 190 283
e 191 256
e 191 260
e 191 282
e 191 286
e 192 255
e 192 259
e 192 281
e 192 285
e 193 258
e 193 262
e 193 284
e 193 288
e 194 257
e 194 261
e 194 283
e 194 287
e 195 260
e 195 263
e 195 286
e 195 289
e 196 259
e 196 263
e 196 285
e 196 289
e 197 261
e 197 262
e 197 287
e 197 288
e 198 265
e 198 267
e 198 291
e 198 293
e 199 264
e 199 266
e 199 290
e 199 292
e 200 265
e 200 269
e 200 291
e 200 295
e 201 264
e 201 268
e 201 290
e 201 294
e 202 267
e 202 271
e 202 293
e 202 297
e 203 266
e 203 270
e 203 292
e 203 296
e 204 269
e 204 273
e 204 295
e 204 299
e 205 268
e 205 272
e 205 294
e 205 298
e 206 271
e 206 275
e 206 297
e 206 301
e 207 270
e 207 274
e 207 296
e 207 300
e 208 273
e 208 276
e 208 299
e 208 302
e 209 272
e 209 276
e 209 298
e 209 302
e 210 274
e 210 275
e 210 300
e 210 301
e 211 278
e 211 280
e 211 304
e 211 306
e 212 277
e 212 279
e 212 303
e 212 305
e 213 278
e 213 282
e 213 304
e 213 308
e 214 277
e 214 281
e 214 303
e 214 307
e 215 280
e 215 284
e 215 306
e 215 310
e 216 279
e 216 283
e 216 305
e 216 309
e 217 282
e 217 286
e 217 308
e 217 312
e 218 281
e 218 285
e 218 307
e 218 311
e 219 284
e 219 288
e 219 310
e 219 314
e 220 283
e 220 287
e 220 309
e 220 313
e 221 286
e 221 289
e 221 312
e 221 315
e 222 285
e 222 289
e 222 311
e 222 315
e 223 287
e 223 288
e 223 313
e 223 314
e 224 291
e 224 293
e 224 316
e 225 290
e 225 292
e 225 316
e 226 291
e 226 295
e 226 316
e 227 290
e 227 294
e 227 316
e 228 293
e 228 297
e 228 316
e 229 292
e 229 296
e 229 316
e 230 295
e 230 299
e 230 316
e 231 294
e 231 298
e 231 316
e 232 297
e 232 301
e 232 316
e 233 296
e 233 300
e 233 316
e 234 299
e 234 302
e 234 316
e 235 298
e 235 302
e 235 316
e 236 300
e 236 301
e 236 316
e 237 303
e 237 304
e 237 305
e 237 306
e 237 307
e 237 308
e 237 309
e 237 310
e 237 311
e 237 312
e 237 313
e 237 314
e 237 315
e 238 318
e 238 320
e 238 331
e 238 333
e 239 317
e 239 319
e 239 330
e 239 332
e 240 318
e 240 322
e 240 331
e 240 335
e 241 317
e 241 321
e 241 330
e 241 334
e 242 320
e 242 324
e 242 333
e 242 337
e 243 319
e 243 323
e 243 332
e 243 336
e 244 322
e 244 326
e 244 335
e 244 339
e 245 321
e 245 325
e 245 334
e 245 338
e 246 324
e 246 328
e 246 337
e 246 341
e 247 323
e 247 327
e 247 336
e 247 340
e 248 326
e 248 329
e 248 339
e 248 342
e 249 325
e 249 329
e 249 338
e 249 342
e 250 327
e 250 328
e 250 340
e 250 341
e 251 318
e 251 320
e 251 344
e 251 346
e 252 317
e 252 319
e 252 343
e 252 345
e 253 318
e 253 322
e 253 344
e 253 348
e 254 317
e 254 321
e 254 343
e 254 347
e 255 320
e 255 324
e 255 346
e 255 350
e 256 319
e 256 323
e 256 345
e 256 349
e 257 322
e 257 326
e 257 348
e 257 352
e 258 321
e 258 325
e 258 347
e 258 351
e 259 324
e 259 328
e 259 350
e 259 354
e 260 323
e 260 327
e 260 349
e 260 353
e 261 326
e 261 329
e 261 352
e 261 355
e 262 325
e 262 329
e 262 351
e 262 355
e 263 327
e 263 328
e 263 353
e 263 354
e 264 331
e 264 333
e 264 357
e 264 359
e 265 330
e 265 332
e 265 356
e 265 358
e 266 331
e 266 335
e 266 357
e 266 361
e 267 330
e 267 334
e 267 356
e 267 360
e 268 333
e 268 337
e 268 359
e 268 363
e 269 332
e 269 336
e 269 358
e 269 362
e 270 335
e 270 339
e 270 361
e 270 365
e 271 334
e 271 338
e 271 360
e 271 364
e 272 337
e 272 341
e 272 363
e 272 367
e 273 336
e 273 340
e 273 362
e 273 366
e 274 339
e 274 342
e 274 365
e 274 368
e 275 338
e 275 342
e 275 364
e 275 368
e 276 340
e 276 341
e 276 366
e 276 367
e 277 344
e 277 346
e 277 370
e 277 372
e 278 343
e 278 345
e 278 369
e 278 371
e 279 344
e 279 348
e 279 370
e 279 374
e 280 343
e 280 347
e 280 369
e 280 373
e 281 346
e 281 350
e 281 372
e 281 376
e 282 345
e 282 349
e 282 371
e 282 375
e 283 348
e 283 352
e 283 374
e 283 378
e 284 347
e 284 351
e 284 373
e 284 377
e 285 350
e 285 354
e 285 376
e 285 380
e 286 349
e 286 353
e 286 375
e 286 379
e 287 352
e 287 355
e 287 378
e 287 381
e 288 351
e 288 355
e 288 377
e 288 381
e 289 353
e 289 354
e 289 379
e 289 380
e 290 357
e 290 359
e 290 383
e 290 385
e 291 356
e 291 358
e 291 382
e 291 384
e 292 357
e 292 361
e 292 383
e 292 387
e 293 356
e 293 360
e 293 382
e 293 386
e 294 359
e 294 363
e 294 385
e 294 389
e 295 358
e 295 362
e 295 384
e 295 388
e 296 361
e 296 365
e 296 387
e 296 391
e 297 360
e 297 364
e 297 386
e 297 390
e 298 363
e 298 367
e 298 389
e 298 393
e 299 362
e 299 366
e 299 388
e 299 392
e 300 365
e 300 368
e 300 391
e 300 394
e 301 364
e 301 368
e 301 390
e 301 394
e 302 366
e 302 367
e 302 392
e 302 393
e 303 370
e 303 372
e 303 395
e 304 369
e 304 371
e 304 395
e 305 370
e 305 374
e 305 395
e 306 369
e 306 373
e 306 395
e 307 372
e 307 376
e 307 395
e 308 371
e 308 375
e 308 395
e 309 374
e 309 378
e 309 395
e 310 373
e 310 377
e 310 395
e 311 376
e 311 380
e 311 395
e 312 375
e 312 379
e 312 395
e 313 378
e 313 381
e 313 395
e 314 377
e 314 381
e 314 395
e 315 379
e 315 380
e 315 395
e 316 382
e 316 383
e 316 384
e 316 385
e 316 386
e 316 387
e 316 388
e 316 389
e 316 390
e 316 391
e 316 392
e 316 393
e 316 394
e 317 397
e 317 399
e 317 410
e 317 412
e 318 396
e 318 398
e 318 409
e 318 411
e 319 397
e 319 401
e 319 410
e 319 414
e 320 396
e 320 400
e 320 409
e 320 413
e 321 399
e 321 403
e 321 412
e 321 416
e 322 398
e 322 402
e 322 411
e 322 415
e 323 401
e 323 405
e 323 414
e 323 418
e 324 400
e 324 404
e 324 413
e 324 417
e 325 403
e 325 407
e 325 416
e 325 420
e 326 402
e 326 406
e 326 415
e 326 419
e 327 405
e 327 408
e 327 418
e 327 421
e 328 404
e 328 408
e 328 417
e 328 421
e 329 406
e 329 407
e 329 419
e 329 420
e 330 397
e 330 399
e 330 423
e 330 425
e 331 396
e 331 398
e 331 422
e 331 424
e 332 397
e 332 401
e 332 423
e 332 427
e 333 396
e 333 400
e 333 422
e 333 426
e 334 399
e 334 403
e 334 425
e 334 429
e 335 398
e 335 402
e 335 424
e 335 428
e 336 401
e 336 405
e 336 427
e 336 431
e 337 400
e 337 404
e 337 426
e 337 430
e 338 403
e 338 407
e 338 429
e 338 433
e 339 402
e 339 406
e 339 428
e 339 432
e 340 405
e 340 408
e 340 431
e 340 434
e 341 404
e 341 408
e 341 430
e 341 434
e 342 406
e 342 407
e 342 432
e 342 433
e 343 410
e 343 412
e 343 436
e 343 438
e 344 409
e 344 411
e 344 435
e 344 437
e 345 410
e 345 414
e 345 436
e 345 440
e 346 409
e 346 413
e 346 435
e 346 439
e 347 412
e 347 416
e 347 438
e 347 442
e 348 411
e 348 415
e 348 437
e 348 441
e 349 414
e 349 418
e 349 440
e 349 444
e 350 413
e 350 417
e 350 439
e 350 443
e 351 416
e 351 420
e 351 442
e 351 446
e 352 415
e 352 419
e 352 441
e 352 445
e 353 418
e 353 421
e 353 444
e 353 447
e 354 417
e 354 421
e 354 443
e 354 447
e 355 419
e 355 420
e 355 445
e 355 446
e 356 423
e 356 425
e 356 449
e 356 451
e 357 422
e 357 424
e 357 448
e 357 450
e 358 423
e 358 427
e 358 449
e 358 453
e 359 422
e 359 426
e 359 448
e 359 452
e 360 425
e 360 429
e 360 451
e 360 455
e 361 424
e 361 428
e 361 450
e 361 454
e 362 427
e 362 431
e 362 453
e 362 457
e 363 426
e 363 430
e 363 452
e 363 456
e 364 429
e 364 433
e 364 455
e 364 459
e 365 428
e 365 432
e 365 454
e 365 458
e 366 431
e 366 434
e 366 457
e 366 460
e 367 430
e 367 434
e 367 456
e 367 460
e 368 432
e 368 433
e 368 458
e 368 459
e 369 436
e 369 438
e 369 462
e 369 464
e 370 435
e 370 437
e 370 461
e 370 463
e 371 436
e 371 440
e 371 462
e 371 466
e 372 435
e 372 439
e 372 461
e 372 465
e 373 438
e 373 442
e 373 464
e 373 468
e 374 437
e 374 441
e 374 463
e 374 467
e 375 440
e 375 444
e 375 466
e 375 470
e 376 439
e 376 443
e 376 465
e 376 469
e 377 442
e 377 446
e 377 468
e 377 472
e 378 441
e 378 445
e 378 467
e 378 471
e 379 444
e 379 447
e 379 470
e 379 473
e 380 443
e 380 447
e 380 469
e 380 473
e 381 445
e 381 446
e 381 471
e 381 472
e 382 449
e 382 451
e 382 474
e 383 448
e 383 450
e 383 474
e 384 449
e 384 453
e 384 474
e 385 448
e 385 452
e 385 474
e 386 451
e 386 455
e 386 474
e 387 450
e 387 454
e 387 474
e 388 453
e 388 457
e 388 474
e 389 452
e 389 456
e 389 474
e 390 455
e 390 459
e 390 474
e 391 454
e 391 458
e 391 474
e 392 457
e 392 460
e 392 474
e 393 456
e 393 460
e 393 474
e 394 458
e 394 459
e 394 474
e 395 461
e 395 462
e 395 463
e 395 464
e 395 465
e 395 466
e 395 467
e 395 468
e 395 469
e 395 470
e 395 471
e 395 472
e 395 473
e 396 475
e 397 475
e 398 475
e 399 475
e 400 475
e 401 475
e 402 475
e 403 475
e 404 475
e 405 475
e 406 475
e 407 475
e 408 475
e 409 475
e 410 475
e 411 475
e 412 475
e 413 475
e 414 475
e 415 475
e 416 475
e 417 475
e 418 475
e 419 475
e 420 475
e 421 475
e 422 475
e 423 475
e 424 475
e 425 475
e 426 475
e 427 475
e 428 475
e 429 475
e 430 475
e 431 475
e 432 475
e 433 475
e 434 475
e 435 475
e 436 475
e 437 475
e 438 475
e 439 475
e 440 475
e 441 475
e 442 475
e 443 475
e 444 475
e 445 475
e 446 475
e 447 475
e 448 475
e 449 475
e 450 475
e 451 475
e 452 475
e 453 475
e 454 475
e 455 475
e 456 475
e 457 475
e 458 475
e 459 475
e 460 475
e 461 475
e 462 475
e 463 475
e 464 475
e 465 475
e 466 475
e 467 475
e 468 475
e 469 475
e 470 475
e 471 475
e 472 475
e 473 475
e 474 475
